163 300 246 214 240 219 233 202 209 207 227 218 218 202 234 227 202 248 223 201 242 233 225 249 244 239 246 244 237 225 208 219 218 228 233 207 248 240 234 231 247 235 249 215 237 233 216 214 204 240 215 220 222 240 218 215 228 213 233 214 212 216 208 204 244 215 236 241 205 219 221 226 229 245 215 215 201 232 229 205 221 218 250 217 207 217 206 235 204 240 224 242 230 232 246 223 221 232 239 200 225 234 227 203 202 242 244 203 248 247 233 218 215 232 209 222 223 216 232 228 230 230 219 209 236 239 206 206 245 219 207 245 228 208 222 230 250 215 208 248 212 241 240 201 248 250 223 245 240 229 222 219 208 215 202 244 229 208 225 248 202 232 242 230 240 